Route #1: 5 28 17
Route #2: 15 3 13 23 22 46 38
Route #3: 1 21 42 8 39 40 2
Route #4: 32 29 19 24 43
Route #5: 44 6 45 41 35 10
Route #6: 30 47 26 18 4 25 7
Route #7: 48 20 27 33 9 37 34
Route #8: 12 36 49 11 16 14 31
cost 1412.1402587890625